src/bag_ants/ants_explorer_unknown/tsp_solver/lkh_mtsp_solver/resource/amtsp_3.atsp
NAME : amtsp
TYPE : ATSP
DIMENSION : 6
EDGE_WEIGHT_TYPE : EXPLICIT
EDGE_WEIGHT_FORMAT : FULL_MATRIX
EDGE_WEIGHT_SECTION
100000 -100000 100000 100000 100000 100000 
100000 100000 245 245 251 100000 
0 0 100000 165 74 245 
0 0 165 100000 90 227 
0 0 74 90 100000 185 
-100000 100000 245 227 185 100000 
